(set-logic QF_BV)
(declare-fun _substvar_94_ () (_ BitVec 95))
(declare-fun _substvar_125_ () (_ BitVec 95))
(declare-fun _substvar_137_ () (_ BitVec 95))
(declare-fun _substvar_190_ () Bool)
(declare-fun _substvar_112_ () (_ BitVec 95))
(assert (and true true true true true true true true true true true true (= _substvar_112_ (_ bv0 95)) (ite _substvar_190_ (= _substvar_137_ (_ bv0 95)) (= _substvar_137_ (concat (_ bv0 94) (bvxor (_ bv0 1) ((_ extract 83 83) _substvar_112_))))) (= _substvar_125_ (concat ((_ extract 93 0) _substvar_137_) (bvxor ((_ extract 94 94) _substvar_137_) ((_ extract 83 83) _substvar_137_)))) (= _substvar_94_ (concat ((_ extract 93 0) _substvar_125_) (_ bv0 1))) true true true true true true true true true true true true true true true true true true true (= (= _substvar_94_ (_ bv0 95)) false)))
(check-sat)
(exit)
